WARNING: for repeatability, setting FPU to use double precision
============================[ Problem Statistics ]=============================
|                                                                             |
|  Number of variables:        175216                                         |
|  Number of clauses:          717086                                         |
|  Parse time:                   0.19 s                                       |
|                                                                             |
============================[ Search Statistics ]==============================
| Conflicts |          ORIGINAL         |          LEARNT          | Progress |
|           |    Vars  Clauses Literals |    Limit  Clauses Lit/Cl |          |
===============================================================================
|       100 |  166318   679859  1722935 |   249281      100      6 |  5.078 % |
|       250 |  166317   679859  1722935 |   274209      249     11 |  5.079 % |
|       475 |  165885   679859  1722935 |   301630      473     10 |  5.325 % |
|       812 |  165885   679859  1722935 |   331793      810      9 |  5.325 % |
|      1318 |  165885   679859  1722935 |   364973     1316      9 |  5.325 % |
|      2077 |  165885   679859  1722935 |   401470     2075      9 |  5.325 % |
|      3216 |  165885   677794  1717684 |   441617     3212     12 |  5.325 % |
|      4924 |  165885   677794  1717684 |   485779     4920     13 |  5.325 % |
|      7486 |  165885   677794  1717684 |   534357     7482     15 |  5.325 % |
|     11330 |  165885   677794  1717684 |   587793    11326     14 |  5.325 % |
|     17096 |  165885   677794  1717684 |   646572    17092     17 |  5.325 % |
|     25745 |  165885   677794  1717684 |   711229    25741     17 |  5.325 % |
|     38719 |  165884   677789  1717674 |   782352    38712     18 |  5.326 % |
|     58180 |  165882   677779  1717654 |   860587    58170     20 |  5.327 % |
|     87372 |  165880   677769  1717634 |   946646    87357     22 |  5.328 % |
|    131161 |  165722   677149  1716183 |  1041311   131091     25 |  5.418 % |
===============================================================================
restarts              : 509
conflicts             : 190242         (5735 /sec)
decisions             : 1370543        (0.00 % random) (41319 /sec)
propagations          : 314221194      (9473054 /sec)
conflict literals     : 4988966        (21.66 % deleted)
Memory used           : 112.00 MB
CPU time              : 33.17 s

SATISFIABLE
